objective value:                                11805
t_x_1                                               1 	(obj:46)
t_x_5                                               1 	(obj:41)
t_x_7                                               1 	(obj:56)
t_x_9                                               1 	(obj:33)
t_x_14                                              1 	(obj:35)
t_x_15                                              1 	(obj:13)
t_x_16                                              1 	(obj:15)
t_x_21                                              1 	(obj:26)
t_x_22                                              1 	(obj:28)
t_x_23                                              1 	(obj:2)
t_x_24                                              1 	(obj:14)
t_x_25                                              1 	(obj:18)
t_x_27                                              1 	(obj:44)
t_x_29                                              1 	(obj:27)
t_x_30                                              1 	(obj:51)
t_x_31                                              1 	(obj:12)
t_x_32                                              1 	(obj:4)
t_x_33                                              1 	(obj:20)
t_x_35                                              1 	(obj:30)
t_x_39                                              1 	(obj:30)
t_x_43                                              1 	(obj:8)
t_x_46                                              1 	(obj:24)
t_x_47                                              1 	(obj:29)
t_x_48                                              1 	(obj:2)
t_x_49                                              1 	(obj:9)
t_x_50                                              1 	(obj:13)
t_x_52                                              1 	(obj:87)
t_x_54                                              1 	(obj:14)
t_x_55                                              1 	(obj:24)
t_x_56                                              1 	(obj:8)
t_x_57                                              1 	(obj:34)
t_x_58                                              1 	(obj:45)
t_x_59                                              1 	(obj:19)
t_x_66                                              1 	(obj:5)
t_x_67                                              1 	(obj:34)
t_x_68                                              1 	(obj:16)
t_x_69                                              1 	(obj:43)
t_x_70                                              1 	(obj:16)
t_x_72                                              1 	(obj:56)
t_x_73                                              1 	(obj:17)
t_x_75                                              1 	(obj:15)
t_x_77                                              1 	(obj:22)
t_x_78                                              1 	(obj:0)
t_x_79                                              1 	(obj:40)
t_x_80                                              1 	(obj:29)
t_x_81                                              1 	(obj:46)
t_x_82                                              1 	(obj:0)
t_x_83                                              1 	(obj:30)
t_x_84                                              1 	(obj:23)
t_x_85                                              1 	(obj:15)
t_x_86                                              1 	(obj:15)
t_x_92                                              1 	(obj:8)
t_x_93                                              1 	(obj:10)
t_x_95                                              1 	(obj:19)
t_x_97                                              1 	(obj:33)
t_x_105                                             1 	(obj:15)
t_x_108                                             1 	(obj:27)
t_x_109                                             1 	(obj:28)
t_x_112                                             1 	(obj:53)
t_x_116                                             1 	(obj:18)
t_x_117                                             1 	(obj:0)
t_x_120                                             1 	(obj:24)
t_x_125                                             1 	(obj:35)
t_x_129                                             1 	(obj:27)
t_x_133                                             1 	(obj:25)
t_x_134                                             1 	(obj:16)
t_x_135                                             1 	(obj:6)
t_x_137                                             1 	(obj:17)
t_x_141                                             1 	(obj:30)
t_x_142                                             1 	(obj:16)
t_x_151                                             1 	(obj:10)
t_x_152                                             1 	(obj:30)
t_x_153                                             1 	(obj:6)
t_x_155                                             1 	(obj:58)
t_x_162                                             1 	(obj:4)
t_x_163                                             1 	(obj:2)
t_x_165                                             1 	(obj:19)
t_x_169                                             1 	(obj:20)
t_x_172                                             1 	(obj:22)
t_x_173                                             1 	(obj:25)
t_x_175                                             1 	(obj:26)
t_x_179                                             1 	(obj:52)
t_x_186                                             1 	(obj:27)
t_x_188                                             1 	(obj:28)
t_x_189                                             1 	(obj:29)
t_x_190                                             1 	(obj:34)
t_x_192                                             1 	(obj:1)
t_x_195                                             1 	(obj:9)
t_x_196                                             1 	(obj:8)
t_x_200                                             1 	(obj:0)
t_x_207                                             1 	(obj:19)
t_x_210                                             1 	(obj:35)
t_x_216                                             1 	(obj:9)
t_x_219                                             1 	(obj:6)
t_x_220                                             1 	(obj:10)
t_x_221                                             1 	(obj:18)
t_x_222                                             1 	(obj:9)
t_x_226                                             1 	(obj:9)
t_x_229                                             1 	(obj:1)
t_x_231                                             1 	(obj:12)
t_x_235                                             1 	(obj:1)
t_x_238                                             1 	(obj:24)
t_x_242                                             1 	(obj:20)
t_x_243                                             1 	(obj:11)
t_x_250                                             1 	(obj:11)
t_x_251                                             1 	(obj:12)
t_x_254                                             1 	(obj:8)
t_x_256                                             1 	(obj:14)
t_x_262                                             1 	(obj:34)
t_x_263                                             1 	(obj:6)
t_x_264                                             1 	(obj:5)
t_x_267                                             1 	(obj:15)
t_x_268                                             1 	(obj:39)
t_x_270                                             1 	(obj:19)
t_x_274                                             1 	(obj:9)
t_x_277                                             1 	(obj:9)
t_x_282                                             1 	(obj:12)
t_x_285                                             1 	(obj:13)
t_x_286                                             1 	(obj:9)
t_x_289                                             1 	(obj:3)
t_x_292                                             1 	(obj:11)
t_x_295                                             1 	(obj:22)
t_x_299                                             1 	(obj:34)
t_x_302                                             1 	(obj:9)
t_x_310                                             1 	(obj:26)
t_x_311                                             1 	(obj:27)
t_x_315                                             1 	(obj:11)
t_x_323                                             1 	(obj:15)
t_x_324                                             1 	(obj:1)
t_x_329                                             1 	(obj:27)
t_x_333                                             1 	(obj:30)
t_x_338                                             1 	(obj:22)
t_x_340                                             1 	(obj:16)
t_x_343                                             1 	(obj:31)
t_x_347                                             1 	(obj:13)
t_x_356                                             1 	(obj:12)
t_x_362                                             1 	(obj:34)
t_x_363                                             1 	(obj:7)
t_x_372                                             1 	(obj:34)
t_x_381                                             1 	(obj:27)
t_x_386                                             1 	(obj:48)
t_x_392                                             1 	(obj:35)
t_x_393                                             1 	(obj:23)
t_x_396                                             1 	(obj:32)
t_x_397                                             1 	(obj:6)
t_x_402                                             1 	(obj:18)
t_x_403                                             1 	(obj:7)
t_x_408                                             1 	(obj:2)
t_x_411                                             1 	(obj:7)
t_x_412                                             1 	(obj:3)
t_x_413                                             1 	(obj:32)
t_x_414                                             1 	(obj:28)
t_x_422                                             1 	(obj:26)
t_x_425                                             1 	(obj:10)
t_x_433                                             1 	(obj:13)
t_x_434                                             1 	(obj:17)
t_x_437                                             1 	(obj:25)
t_x_439                                             1 	(obj:25)
t_x_440                                             1 	(obj:3)
t_x_444                                             1 	(obj:9)
t_x_449                                             1 	(obj:40)
t_x_450                                             1 	(obj:23)
t_x_451                                             1 	(obj:11)
t_x_453                                             1 	(obj:4)
t_x_457                                             1 	(obj:28)
t_x_468                                             1 	(obj:5)
t_x_469                                             1 	(obj:14)
t_x_473                                             1 	(obj:19)
t_x_476                                             1 	(obj:6)
t_x_483                                             1 	(obj:40)
t_x_488                                             1 	(obj:13)
t_x_490                                             1 	(obj:34)
t_x_492                                             1 	(obj:26)
t_x_494                                             1 	(obj:35)
t_x_495                                             1 	(obj:44)
t_x_504                                             1 	(obj:3)
t_x_510                                             1 	(obj:3)
t_x_511                                             1 	(obj:1)
t_x_515                                             1 	(obj:60)
t_x_526                                             1 	(obj:31)
t_x_529                                             1 	(obj:2)
t_x_539                                             1 	(obj:39)
t_x_540                                             1 	(obj:43)
t_x_542                                             1 	(obj:19)
t_x_543                                             1 	(obj:25)
t_x_544                                             1 	(obj:36)
t_x_550                                             1 	(obj:5)
t_x_551                                             1 	(obj:48)
t_x_553                                             1 	(obj:60)
t_x_555                                             1 	(obj:20)
t_x_559                                             1 	(obj:48)
t_x_561                                             1 	(obj:36)
t_x_564                                             1 	(obj:29)
t_x_565                                             1 	(obj:4)
t_x_566                                             1 	(obj:28)
t_x_567                                             1 	(obj:21)
t_x_568                                             1 	(obj:42)
t_x_581                                             1 	(obj:18)
t_x_588                                             1 	(obj:10)
t_x_589                                             1 	(obj:19)
t_x_593                                             1 	(obj:19)
t_x_597                                             1 	(obj:44)
t_x_599                                             1 	(obj:8)
t_x_608                                             1 	(obj:4)
t_x_610                                             1 	(obj:4)
t_x_611                                             1 	(obj:32)
t_x_627                                             1 	(obj:6)
t_x_628                                             1 	(obj:41)
t_x_630                                             1 	(obj:50)
t_x_632                                             1 	(obj:53)
t_x_633                                             1 	(obj:7)
t_x_634                                             1 	(obj:17)
t_x_636                                             1 	(obj:25)
t_x_639                                             1 	(obj:35)
t_x_641                                             1 	(obj:26)
t_x_646                                             1 	(obj:5)
t_x_652                                             1 	(obj:17)
t_x_653                                             1 	(obj:22)
t_x_654                                             1 	(obj:18)
t_x_655                                             1 	(obj:7)
t_x_657                                             1 	(obj:28)
t_x_659                                             1 	(obj:13)
t_x_661                                             1 	(obj:48)
t_x_664                                             1 	(obj:0)
t_x_666                                             1 	(obj:19)
t_x_668                                             1 	(obj:5)
t_x_672                                             1 	(obj:10)
t_x_676                                             1 	(obj:16)
t_x_679                                             1 	(obj:21)
t_x_682                                             1 	(obj:10)
t_x_687                                             1 	(obj:30)
t_x_688                                             1 	(obj:13)
t_x_689                                             1 	(obj:20)
t_x_693                                             1 	(obj:14)
t_x_696                                             1 	(obj:33)
t_x_701                                             1 	(obj:22)
t_x_705                                             1 	(obj:26)
t_x_709                                             1 	(obj:16)
t_x_714                                             1 	(obj:8)
t_x_717                                             1 	(obj:16)
t_x_729                                             1 	(obj:5)
t_x_730                                             1 	(obj:13)
t_x_732                                             1 	(obj:17)
t_x_735                                             1 	(obj:11)
t_x_736                                             1 	(obj:14)
t_x_742                                             1 	(obj:23)
t_x_752                                             1 	(obj:34)
t_x_756                                             1 	(obj:57)
t_x_762                                             1 	(obj:10)
t_x_763                                             1 	(obj:30)
t_x_765                                             1 	(obj:20)
t_x_772                                             1 	(obj:23)
t_x_773                                             1 	(obj:5)
t_x_775                                             1 	(obj:24)
t_x_776                                             1 	(obj:22)
t_x_779                                             1 	(obj:19)
t_x_782                                             1 	(obj:3)
t_x_787                                             1 	(obj:18)
t_x_788                                             1 	(obj:7)
t_x_790                                             1 	(obj:15)
t_x_791                                             1 	(obj:6)
t_x_793                                             1 	(obj:9)
t_x_795                                             1 	(obj:21)
t_x_797                                             1 	(obj:19)
t_x_799                                             1 	(obj:6)
t_x_800                                             1 	(obj:23)
t_x_802                                             1 	(obj:41)
t_x_805                                             1 	(obj:39)
t_x_817                                             1 	(obj:2)
t_x_820                                             1 	(obj:23)
t_x_824                                             1 	(obj:26)
t_x_827                                             1 	(obj:15)
t_x_828                                             1 	(obj:26)
t_x_832                                             1 	(obj:1)
t_x_833                                             1 	(obj:18)
t_x_834                                             1 	(obj:36)
t_x_837                                             1 	(obj:0)
t_x_844                                             1 	(obj:13)
t_x_856                                             1 	(obj:7)
t_x_865                                             1 	(obj:9)
t_x_870                                             1 	(obj:27)
t_x_872                                             1 	(obj:2)
t_x_873                                             1 	(obj:0)
t_x_875                                             1 	(obj:21)
t_x_877                                             1 	(obj:0)
t_x_883                                             1 	(obj:41)
t_x_884                                             1 	(obj:15)
t_x_889                                             1 	(obj:8)
t_x_900                                             1 	(obj:10)
t_x_902                                             1 	(obj:8)
t_x_906                                             1 	(obj:60)
t_x_915                                             1 	(obj:15)
t_x_918                                             1 	(obj:18)
t_x_922                                             1 	(obj:59)
t_x_926                                             1 	(obj:25)
t_x_927                                             1 	(obj:11)
t_x_928                                             1 	(obj:11)
t_x_930                                             1 	(obj:16)
t_x_933                                             1 	(obj:5)
t_x_943                                             1 	(obj:1)
t_x_946                                             1 	(obj:6)
t_x_949                                             1 	(obj:28)
t_x_955                                             1 	(obj:27)
t_x_956                                             1 	(obj:40)
t_x_960                                             1 	(obj:23)
t_x_963                                             1 	(obj:11)
t_x_969                                             1 	(obj:7)
t_x_973                                             1 	(obj:17)
t_x_978                                             1 	(obj:7)
t_x_983                                             1 	(obj:5)
t_x_985                                             1 	(obj:2)
t_x_988                                             1 	(obj:7)
t_x_989                                             1 	(obj:23)
t_x_991                                             1 	(obj:44)
t_x_997                                             1 	(obj:29)
t_x_1006                                            1 	(obj:11)
t_x_1014                                            1 	(obj:19)
t_x_1018                                            1 	(obj:57)
t_x_1023                                            1 	(obj:1)
t_x_1026                                            1 	(obj:20)
t_x_1027                                            1 	(obj:0)
t_x_1028                                            1 	(obj:32)
t_x_1038                                            1 	(obj:6)
t_x_1039                                            1 	(obj:10)
t_x_1041                                            1 	(obj:4)
t_x_1044                                            1 	(obj:1)
t_x_1045                                            1 	(obj:15)
t_x_1047                                            1 	(obj:4)
t_x_1051                                            1 	(obj:10)
t_x_1052                                            1 	(obj:60)
t_x_1055                                            1 	(obj:6)
t_x_1056                                            1 	(obj:0)
t_x_1058                                            1 	(obj:11)
t_x_1060                                            1 	(obj:0)
t_x_1061                                            1 	(obj:13)
t_x_1062                                            1 	(obj:3)
t_x_1065                                            1 	(obj:58)
t_x_1066                                            1 	(obj:11)
t_x_1068                                            1 	(obj:19)
t_x_1070                                            1 	(obj:17)
t_x_1074                                            1 	(obj:4)
t_x_1077                                            1 	(obj:7)
t_x_1078                                            1 	(obj:11)
t_x_1080                                            1 	(obj:1)
t_x_1084                                            1 	(obj:11)
t_x_1087                                            1 	(obj:6)
t_x_1094                                            1 	(obj:5)
t_x_1095                                            1 	(obj:5)
t_x_1096                                            1 	(obj:5)
t_x_1097                                            1 	(obj:5)
t_x_1102                                            1 	(obj:16)
t_x_1103                                            1 	(obj:25)
t_x_1104                                            1 	(obj:14)
t_x_1106                                            1 	(obj:14)
t_x_1109                                            1 	(obj:48)
t_x_1115                                            1 	(obj:4)
t_x_1124                                            1 	(obj:10)
t_x_1125                                            1 	(obj:11)
t_x_1127                                            1 	(obj:3)
t_x_1128                                            1 	(obj:3)
t_x_1129                                            1 	(obj:21)
t_x_1131                                            1 	(obj:12)
t_x_1142                                            1 	(obj:24)
t_x_1145                                            1 	(obj:20)
t_x_1151                                            1 	(obj:2)
t_x_1159                                            1 	(obj:13)
t_x_1162                                            1 	(obj:4)
t_x_1169                                            1 	(obj:3)
t_x_1177                                            1 	(obj:12)
t_x_1178                                            1 	(obj:62)
t_x_1186                                            1 	(obj:17)
t_x_1192                                            1 	(obj:44)
t_x_1193                                            1 	(obj:7)
t_x_1194                                            1 	(obj:9)
t_x_1196                                            1 	(obj:21)
t_x_1198                                            1 	(obj:37)
t_x_1208                                            1 	(obj:8)
t_x_1213                                            1 	(obj:14)
t_x_1226                                            1 	(obj:6)
t_x_1231                                            1 	(obj:5)
t_x_1234                                            1 	(obj:4)
t_x_1244                                            1 	(obj:15)
t_x_1247                                            1 	(obj:7)
t_x_1251                                            1 	(obj:20)
t_x_1254                                            1 	(obj:50)
t_x_1257                                            1 	(obj:9)
t_x_1260                                            1 	(obj:8)
t_x_1263                                            1 	(obj:40)
t_x_1264                                            1 	(obj:6)
t_x_1266                                            1 	(obj:2)
t_x_1272                                            1 	(obj:29)
t_x_1275                                            1 	(obj:5)
t_x_1276                                            1 	(obj:11)
t_x_1277                                            1 	(obj:29)
t_x_1284                                            1 	(obj:4)
t_x_1285                                            1 	(obj:23)
t_x_1287                                            1 	(obj:9)
t_x_1288                                            1 	(obj:26)
t_x_1289                                            1 	(obj:23)
t_x_1291                                            1 	(obj:34)
t_x_1301                                            1 	(obj:15)
t_x_1311                                            1 	(obj:7)
t_x_1312                                            1 	(obj:51)
t_x_1313                                            1 	(obj:13)
t_x_1318                                            1 	(obj:7)
t_x_1322                                            1 	(obj:16)
t_x_1324                                            1 	(obj:45)
t_x_1334                                            1 	(obj:21)
t_x_1337                                            1 	(obj:12)
t_x_1338                                            1 	(obj:49)
t_x_1345                                            1 	(obj:11)
t_x_1346                                            1 	(obj:3)
t_x_1354                                            1 	(obj:17)
t_x_1356                                            1 	(obj:1)
t_x_1381                                            1 	(obj:6)
t_x_1382                                            1 	(obj:19)
t_x_1394                                            1 	(obj:23)
t_x_1395                                            1 	(obj:6)
t_x_1396                                            1 	(obj:20)
t_x_1401                                            1 	(obj:8)
t_x_1403                                            1 	(obj:37)
t_x_1408                                            1 	(obj:6)
t_x_1411                                            1 	(obj:18)
t_x_1414                                            1 	(obj:51)
t_x_1422                                            1 	(obj:9)
t_x_1423                                            1 	(obj:54)
t_x_1428                                            1 	(obj:40)
t_x_1431                                            1 	(obj:22)
t_x_1433                                            1 	(obj:16)
t_x_1445                                            1 	(obj:3)
t_x_1446                                            1 	(obj:3)
t_x_1447                                            1 	(obj:19)
t_x_1450                                            1 	(obj:48)
t_x_1452                                            1 	(obj:34)
t_x_1454                                            1 	(obj:22)
t_x_1459                                            1 	(obj:38)
t_x_1462                                            1 	(obj:42)
t_x_1464                                            1 	(obj:8)
t_x_1465                                            1 	(obj:19)
t_x_1468                                            1 	(obj:39)
t_x_1469                                            1 	(obj:16)
t_x_1470                                            1 	(obj:34)
t_x_1471                                            1 	(obj:6)
t_x_1474                                            1 	(obj:28)
t_x_1477                                            1 	(obj:19)
t_x_1479                                            1 	(obj:11)
t_x_1488                                            1 	(obj:12)
t_x_1491                                            1 	(obj:11)
t_x_1495                                            1 	(obj:21)
t_x_1498                                            1 	(obj:6)
t_x_1499                                            1 	(obj:18)
t_x_1502                                            1 	(obj:17)
t_x_1510                                            1 	(obj:20)
t_x_1512                                            1 	(obj:5)
t_x_1517                                            1 	(obj:34)
t_x_1520                                            1 	(obj:18)
t_x_1521                                            1 	(obj:27)
t_x_1522                                            1 	(obj:16)
t_x_1530                                            1 	(obj:3)
t_x_1536                                            1 	(obj:16)
t_x_1538                                            1 	(obj:41)
t_x_1539                                            1 	(obj:2)
t_x_1540                                            1 	(obj:32)
t_x_1541                                            1 	(obj:1)
t_x_1542                                            1 	(obj:39)
t_x_1549                                            1 	(obj:13)
t_x_1552                                            1 	(obj:29)
t_x_1556                                            1 	(obj:28)
t_x_1558                                            1 	(obj:49)
t_x_1560                                            1 	(obj:16)
t_x_1561                                            1 	(obj:3)
t_x_1562                                            1 	(obj:11)
t_x_1566                                            1 	(obj:46)
t_x_1572                                            1 	(obj:47)
t_x_1573                                            1 	(obj:0)
t_x_1576                                            1 	(obj:19)
t_x_1578                                            1 	(obj:57)
t_x_1581                                            1 	(obj:19)
t_x_1584                                            1 	(obj:18)
t_x_1595                                            1 	(obj:8)
t_x_1596                                            1 	(obj:0)
t_x_1598                                            1 	(obj:1)
t_x_1600                                            1 	(obj:11)
t_x_1605                                            1 	(obj:9)
t_x_1611                                            1 	(obj:8)
t_x_1613                                            1 	(obj:21)
t_x_1619                                            1 	(obj:6)
t_x_1621                                            1 	(obj:7)
t_x_1622                                            1 	(obj:29)
t_x_1623                                            1 	(obj:7)
t_x_1624                                            1 	(obj:14)
t_x_1626                                            1 	(obj:1)
t_x_1629                                            1 	(obj:40)
t_x_1635                                            1 	(obj:4)
t_x_1636                                            1 	(obj:27)
t_x_1641                                            1 	(obj:58)
t_x_1643                                            1 	(obj:25)
t_x_1648                                            1 	(obj:1)
t_x_1649                                            1 	(obj:8)
t_x_1657                                            1 	(obj:17)
t_x_1659                                            1 	(obj:2)
t_x_1661                                            1 	(obj:11)
t_x_1665                                            1 	(obj:28)
t_x_1670                                            1 	(obj:19)
t_x_1671                                            1 	(obj:39)
t_x_1680                                            1 	(obj:29)
t_x_1681                                            1 	(obj:2)
t_x_1682                                            1 	(obj:9)
t_x_1683                                            1 	(obj:10)
t_x_1684                                            1 	(obj:12)
t_x_1688                                            1 	(obj:43)
t_x_1689                                            1 	(obj:5)
t_x_1690                                            1 	(obj:8)
t_x_1691                                            1 	(obj:40)
t_x_1692                                            1 	(obj:14)
t_x_1695                                            1 	(obj:22)
t_x_1698                                            1 	(obj:16)
t_x_1699                                            1 	(obj:12)
t_x_1700                                            1 	(obj:18)
t_x_1702                                            1 	(obj:16)
t_x_1706                                            1 	(obj:19)
t_x_1713                                            1 	(obj:6)
t_x_1717                                            1 	(obj:1)
t_x_1718                                            1 	(obj:3)
t_x_1719                                            1 	(obj:25)
t_x_1720                                            1 	(obj:19)
t_x_1724                                            1 	(obj:30)
t_x_1725                                            1 	(obj:4)
t_x_1727                                            1 	(obj:7)
t_x_1729                                            1 	(obj:2)
t_x_1731                                            1 	(obj:29)
t_x_1732                                            1 	(obj:33)
t_x_1734                                            1 	(obj:28)
t_x_1737                                            1 	(obj:27)
t_x_1738                                            1 	(obj:38)
t_x_1751                                            1 	(obj:36)
t_x_1752                                            1 	(obj:34)
t_x_1754                                            1 	(obj:20)
t_x_1761                                            1 	(obj:45)
t_x_1769                                            1 	(obj:39)
t_x_1772                                            1 	(obj:40)
t_x_1775                                            1 	(obj:0)
t_x_1785                                            1 	(obj:5)
t_x_1789                                            1 	(obj:6)
t_x_1792                                            1 	(obj:37)
t_x_1793                                            1 	(obj:23)
t_x_1798                                            1 	(obj:5)
t_x_1800                                            1 	(obj:6)
t_x_1803                                            1 	(obj:10)
t_x_1805                                            1 	(obj:0)
t_x_1809                                            1 	(obj:3)
t_x_1811                                            1 	(obj:2)
t_x_1814                                            1 	(obj:18)
t_x_1817                                            1 	(obj:36)
t_x_1819                                            1 	(obj:36)
t_x_1822                                            1 	(obj:29)
t_x_1824                                            1 	(obj:6)
t_x_1825                                            1 	(obj:32)
t_x_1826                                            1 	(obj:32)
t_x_1832                                            1 	(obj:38)
t_x_1833                                            1 	(obj:13)
t_x_1835                                            1 	(obj:7)
t_x_1839                                            1 	(obj:26)
t_x_1840                                            1 	(obj:18)
t_x_1842                                            1 	(obj:1)
t_x_1843                                            1 	(obj:12)
t_x_1849                                            1 	(obj:12)
t_x_1854                                            1 	(obj:3)
t_x_1856                                            1 	(obj:23)
t_x_1861                                            1 	(obj:7)
t_x_1862                                            1 	(obj:15)
t_x_1864                                            1 	(obj:0)
t_x_1865                                            1 	(obj:19)
t_x_1867                                            1 	(obj:3)
t_x_1869                                            1 	(obj:10)
t_x_1870                                            1 	(obj:33)
t_x_1871                                            1 	(obj:16)
t_x_1873                                            1 	(obj:9)
t_x_1877                                            1 	(obj:7)
t_x_1878                                            1 	(obj:28)
t_x_1879                                            1 	(obj:32)
t_x_1880                                            1 	(obj:24)
t_x_1882                                            1 	(obj:29)
t_x_1886                                            1 	(obj:22)
t_x_1889                                            1 	(obj:0)
t_x_1891                                            1 	(obj:24)
t_x_1893                                            1 	(obj:4)
t_x_1899                                            1 	(obj:59)
t_x_1907                                            1 	(obj:10)
t_x_1909                                            1 	(obj:12)
t_x_1912                                            1 	(obj:30)
t_x_1915                                            1 	(obj:12)
t_x_1923                                            1 	(obj:42)
t_x_1924                                            1 	(obj:4)
t_x_1926                                            1 	(obj:28)
t_x_1927                                            1 	(obj:4)
t_x_1933                                            1 	(obj:39)
t_x_1940                                            1 	(obj:4)
t_x_1942                                            1 	(obj:9)
t_x_1943                                            1 	(obj:63)
t_x_1949                                            1 	(obj:19)
t_x_1950                                            1 	(obj:12)
t_x_1954                                            1 	(obj:39)
t_x_1962                                            1 	(obj:0)
t_x_1964                                            1 	(obj:6)
t_x_1965                                            1 	(obj:23)
t_x_1972                                            1 	(obj:1)
t_x_1978                                            1 	(obj:9)
t_x_1982                                            1 	(obj:16)
t_x_1986                                            1 	(obj:5)
t_x_1987                                            1 	(obj:39)
t_x_1989                                            1 	(obj:10)
t_x_1993                                            1 	(obj:18)
t_x_1997                                            1 	(obj:16)
t_x_1998                                            1 	(obj:17)
